Problem:    
Rows:       248
Columns:    89 (72 integer, 72 binary)
Non-zeros:  820
Status:     INTEGER OPTIMAL
Objective:  value = 57.5403 (MINimum)

   No.   Row name        Activity     Lower bound   Upper bound
------ ------------    ------------- ------------- -------------
     1 r.5                   57.5403             0               
     2 r.6                   -1.4302       -1990.4               
     3 r.7                   2057.54             0               
     4 r.8                  -1983.69      -1988.02               
     5 r.9                   57.5403             0               
     6 r.10                 -11.0283      -1989.67               
     7 r.11                  2057.54             0               
     8 r.12                 -1962.11         -1988               
     9 r.13                  2057.54             0               
    10 r.14                 -1958.29      -1984.05               
    11 r.15                  57.5403             0               
    12 r.16                 -1932.59       -1983.3               
    13 r.17                  2057.54             0               
    14 r.18                 -1986.24       -1991.1               
    15 r.19                  57.5403             0               
    16 r.20                  16.3241      -1988.03               
    17 r.21                  57.5403             0               
    18 r.22                  10.8631      -1992.03               
    19 r.23                  2057.54             0               
    20 r.24                 -1974.11      -1990.42               
    21 r.25                  57.5403             0               
    22 r.26                  10.8631      -1978.11               
    23 r.27                  2057.54             0               
    24 r.28                 -1952.29      -1990.18               
    25 r.29                  57.5403             0               
    26 r.30                 -11.0283      -1977.68               
    27 r.31                  2057.54             0               
    28 r.32                 -1942.46      -1990.17               
    29 r.33                  2057.54             0               
    30 r.34                 -1998.68      -1998.68               
    31 r.35                  57.5403             0               
    32 r.36                   1.3241      -1996.63               
    33 r.37                        1             1             = 
    34 r.38                        1             1             = 
    35 r.39                        1             1             = 
    36 r.40                        1             1             = 
    37 r.41                        1             1             = 
    38 r.42                        1             1             = 
    39 r.43                        1             1             = 
    40 r.44                        1             1             = 
    41 r.45                   1990.4       10.3275               
    42 r.46                  -1990.4       -1990.4               
    43 r.47                  21.5794       12.0003               
    44 r.48                 -21.5794      -1988.02               
    45 r.49                  43.1416       15.9516               
    46 r.50                 -46.1416       -1990.4               
    47 r.51                  51.1012       16.6972               
    48 r.52                 -48.1012      -1988.02               
    49 r.53                    21.19        8.8967               
    50 r.54                   -27.19       -1990.4               
    51 r.55                  1994.02       11.9737               
    52 r.56                 -1988.02      -1988.02               
    53 r.57                  12.2933       7.96632               
    54 r.58                 -12.2933       -1990.4               
    55 r.59                   9.5791        9.5791               
    56 r.60                  -9.5791      -1988.02               
    57 r.61                  12.2933      -1975.11               
    58 r.62                 -1950.86      -1987.18               
    59 r.63                  -5.4443      -1975.11               
    60 r.64                  -1968.6      -1987.18               
    61 r.65                   1990.4       22.3181               
    62 r.66                  -1990.4       -1990.4               
    63 r.67                  41.2329        9.8289               
    64 r.68                 -41.2329      -1988.02               
    65 r.69                  -2.7543       -1987.4               
    66 r.70                 -1985.02      -1985.02               
    67 r.71                  -2.7543       -1987.4               
    68 r.72                 -1985.02      -1985.02               
    69 r.73                   9.5981        9.5981               
    70 r.74                  -9.5981      -1989.67               
    71 r.75                  1978.42       11.9833               
    72 r.76                 -1978.42         -1988               
    73 r.77                  52.7397       15.9516               
    74 r.78                 -55.7397      -1989.67               
    75 r.79                  29.5218       16.6972               
    76 r.80                 -26.5218         -1988               
    77 r.81                  30.7881        8.8967               
    78 r.82                 -36.7881      -1989.67               
    79 r.83                  1972.44       11.9737               
    80 r.84                 -1966.44         -1988               
    81 r.85                  21.8914       7.96632               
    82 r.86                 -21.8914      -1989.67               
    83 r.87                     1988        9.5791               
    84 r.88                    -1988         -1988               
    85 r.89                  21.8914       21.8914               
    86 r.90                 -21.8914      -1989.67               
    87 r.91                   9.8246        9.8246               
    88 r.92                  -9.8246         -1988               
    89 r.93                        0      -1974.68               
    90 r.94                 -1931.43      -1987.17               
    91 r.95                 -48.9151      -1974.68               
    92 r.96                 -1980.35      -1987.17               
    93 r.97                 -12.3524      -1986.67               
    94 r.98                 -1963.44         -1985               
    95 r.99                 -12.3524      -1986.67               
    96 r.100                -1963.44         -1985               
    97 r.101                 1953.86        9.5981               
    98 r.102                -1953.86      -1984.05               
    99 r.103                  1951.9       11.9833               
   100 r.104                 -1951.9       -1983.3               
   101 r.105                 1944.26       10.3275               
   102 r.106                -1944.26      -1984.05               
   103 r.107                 1973.48       12.0003               
   104 r.108                -1973.48       -1983.3               
   105 r.109                -1981.05      -1981.05               
   106 r.110                -1961.35       -1980.3               
   107 r.111                -1959.61      -1981.05               
   108 r.112                -1939.92       -1980.3               
   109 r.113                 1966.15       7.96632               
   110 r.114                -1966.15      -1984.05               
   111 r.115                 1961.48        9.5791               
   112 r.116                -1961.48       -1983.3               
   113 r.117                 1966.15       21.8914               
   114 r.118                -1966.15      -1984.05               
   115 r.119                  1983.3        9.8246               
   116 r.120                 -1983.3       -1983.3               
   117 r.121                -55.7397      -1974.68               
   118 r.122                -1987.17      -1987.17               
   119 r.123                 1924.56      -1974.68               
   120 r.124                 -6.8683      -1987.17               
   121 r.125                -1956.61      -1981.05               
   122 r.126                -1936.92       -1980.3               
   123 r.127                -1956.61      -1981.05               
   124 r.128                -1936.92       -1980.3               
   125 r.129                 1972.81        9.5981               
   126 r.130                -1972.81       -1991.1               
   127 r.131                 11.9833       11.9833               
   128 r.132                -11.9833      -1988.03               
   129 r.133                 1963.21       10.3275               
   130 r.134                -1963.21       -1991.1               
   131 r.135                 33.5627       12.0003               
   132 r.136                -33.5627      -1988.03               
   133 r.137                -1981.05      -1981.05               
   134 r.138                -1961.35       -1980.3               
   135 r.139                -1959.61      -1981.05               
   136 r.140                -1939.92       -1980.3               
   137 r.141                  1985.1       7.96632               
   138 r.142                 -1985.1       -1991.1               
   139 r.143                 21.5624        9.5791               
   140 r.144                -21.5624      -1988.03               
   141 r.145                  1985.1       21.8914               
   142 r.146                 -1985.1       -1991.1               
   143 r.147                 43.3873        9.8246               
   144 r.148                -43.3873      -1988.03               
   145 r.149                -36.7881      -1974.68               
   146 r.150                -1968.22      -1987.17               
   147 r.151                -15.3524      -1974.68               
   148 r.152                -1946.78      -1987.17               
   149 r.153                -1975.56       -1985.1               
   150 r.154                       3      -1982.03               
   151 r.155                -1975.56       -1985.1               
   152 r.156                       3      -1982.03               
   153 r.157                 1987.71        9.5981               
   154 r.158                -1987.71      -1992.03               
   155 r.159                 1990.42       11.9833               
   156 r.160                -1990.42      -1990.42               
   157 r.161                 1978.11       10.3275               
   158 r.162                -1978.11      -1992.03               
   159 r.163                 12.0003       12.0003               
   160 r.164                -12.0003      -1990.42               
   161 r.165                 30.8483       15.9516               
   162 r.166                -33.8483      -1992.03               
   163 r.167                 41.5221       16.6972               
   164 r.168                -38.5221      -1990.42               
   165 r.169                  8.8967        8.8967               
   166 r.170                -14.8967      -1992.03               
   167 r.171                 1984.44       11.9737               
   168 r.172                -1978.44      -1990.42               
   169 r.173                       0      -1975.11               
   170 r.174                -1963.15      -1987.18               
   171 r.175                -15.0234      -1975.11               
   172 r.176                -1978.18      -1987.18               
   173 r.177                -21.8914      -1974.68               
   174 r.178                -1953.32      -1987.17               
   175 r.179                -36.9148      -1974.68               
   176 r.180                -1968.35      -1987.17               
   177 r.181                   9.539      -1986.03               
   178 r.182                -1975.44      -1984.42               
   179 r.183                   9.539      -1986.03               
   180 r.184                -1975.44      -1984.42               
   181 r.185                 12.2933      -1975.11               
   182 r.186                -1950.86      -1987.18               
   183 r.187                 -5.4443      -1975.11               
   184 r.188                 -1968.6      -1987.18               
   185 r.189                 1978.11       10.3275               
   186 r.190                -1978.11      -1978.11               
   187 r.191                 1990.18       12.0003               
   188 r.192                -1990.18      -1990.18               
   189 r.193                 30.8483       15.9516               
   190 r.194                -33.8483      -1978.11               
   191 r.195                 19.6972       16.6972               
   192 r.196                -16.6972      -1990.18               
   193 r.197                  8.8967        8.8967               
   194 r.198                -14.8967      -1978.11               
   195 r.199                 1962.61       11.9737               
   196 r.200                -1956.61      -1990.18               
   197 r.201                       0      -1975.11               
   198 r.202                -1963.15      -1987.18               
   199 r.203                -15.0234      -1975.11               
   200 r.204                -1978.18      -1987.18               
   201 r.205                 1978.11       22.3181               
   202 r.206                -1978.11      -1978.11               
   203 r.207                  9.8289        9.8289               
   204 r.208                 -9.8289      -1990.18               
   205 r.209                  9.5981        9.5981               
   206 r.210                 -9.5981      -1977.68               
   207 r.211                 1958.77       11.9833               
   208 r.212                -1958.77      -1990.17               
   209 r.213                       0      -1974.68               
   210 r.214                -1931.43      -1987.17               
   211 r.215                -48.9151      -1974.68               
   212 r.216                -1980.35      -1987.17               
   213 r.217                -55.7397      -1974.68               
   214 r.218                -1987.17      -1987.17               
   215 r.219                 1924.56      -1974.68               
   216 r.220                 -6.8683      -1987.17               
   217 r.221                -36.7881      -1974.68               
   218 r.222                -1968.22      -1987.17               
   219 r.223                -15.3524      -1974.68               
   220 r.224                -1946.78      -1987.17               
   221 r.225                -21.8914      -1974.68               
   222 r.226                -1953.32      -1987.17               
   223 r.227                -36.9148      -1974.68               
   224 r.228                -1968.35      -1987.17               
   225 r.229                 21.8914       21.8914               
   226 r.230                -21.8914      -1977.68               
   227 r.231                 1990.17        9.8246               
   228 r.232                -1990.17      -1990.17               
   229 r.233                 -2.7543       -1987.4               
   230 r.234                -1985.02      -1985.02               
   231 r.235                 -2.7543       -1987.4               
   232 r.236                -1985.02      -1985.02               
   233 r.237                -12.3524      -1986.67               
   234 r.238                -1963.44         -1985               
   235 r.239                -12.3524      -1986.67               
   236 r.240                -1963.44         -1985               
   237 r.241                -1956.61      -1981.05               
   238 r.242                -1936.92       -1980.3               
   239 r.243                -1956.61      -1981.05               
   240 r.244                -1936.92       -1980.3               
   241 r.245                -1975.56       -1985.1               
   242 r.246                       3      -1982.03               
   243 r.247                -1975.56       -1985.1               
   244 r.248                       3      -1982.03               
   245 r.249                   9.539      -1986.03               
   246 r.250                -1975.44      -1984.42               
   247 r.251                   9.539      -1986.03               
   248 r.252                -1975.44      -1984.42               

   No. Column name       Activity     Lower bound   Upper bound
------ ------------    ------------- ------------- -------------
     1 tt                    57.5403             0               
     2 s_1_1        *              0             0             1 
     3 t_1_1                 58.9705             0               
     4 s_1_6        *              0             0             1 
     5 s_2_1        *              1             0             1 
     6 t_2_1                 41.2329             0               
     7 s_2_6        *              1             0             1 
     8 s_1_2        *              0             0             1 
     9 t_1_2                 68.5686             0               
    10 s_1_7        *              0             0             1 
    11 s_2_2        *              1             0             1 
    12 t_2_2                 19.6535             0               
    13 s_2_7        *              1             0             1 
    14 s_1_3        *              1             0             1 
    15 t_1_3                 12.8289             0               
    16 s_2_3        *              0             0             1 
    17 t_2_3                 1993.13             0               
    18 s_1_4        *              1             0             1 
    19 t_1_4                 31.7805             0               
    20 s_2_4        *              0             0             1 
    21 t_2_4                 53.2162             0               
    22 s_1_5        *              0             0             1 
    23 t_1_5                 46.6772             0               
    24 s_2_5        *              1             0             1 
    25 t_2_5                 31.6538             0               
    26 t_1_6                 46.6772             0               
    27 t_2_6                  9.8289             0               
    28 t_1_7                 68.5686             0               
    29 t_2_7                       0             0               
    30 s_1_8        *              1             0             1 
    31 t_1_8                 56.2162             0               
    32 s_2_8        *              0             0             1 
    33 t_2_8                 56.2162             0               
    34 u_1_1_2      *              1             0             1 
    35 u_2_1_2      *              0             0             1 
    36 u_1_1_3      *              0             0             1 
    37 u_2_1_3      *              1             0             1 
    38 u_1_1_4      *              0             0             1 
    39 u_2_1_4      *              1             0             1 
    40 u_1_1_5      *              0             0             1 
    41 u_2_1_5      *              0             0             1 
    42 u_1_1_7      *              1             0             1 
    43 u_2_1_7      *              0             0             1 
    44 u_1_2_1      *              0             0             1 
    45 u_2_2_1      *              1             0             1 
    46 u_1_2_3      *              0             0             1 
    47 u_2_2_3      *              1             0             1 
    48 u_1_2_4      *              0             0             1 
    49 u_2_2_4      *              1             0             1 
    50 u_1_2_5      *              0             0             1 
    51 u_2_2_5      *              1             0             1 
    52 u_1_2_6      *              0             0             1 
    53 u_2_2_6      *              0             0             1 
    54 u_1_3_1      *              1             0             1 
    55 u_2_3_1      *              0             0             1 
    56 u_1_3_2      *              1             0             1 
    57 u_2_3_2      *              0             0             1 
    58 u_1_3_5      *              1             0             1 
    59 u_2_3_5      *              0             0             1 
    60 u_1_3_6      *              1             0             1 
    61 u_2_3_6      *              0             0             1 
    62 u_1_4_1      *              1             0             1 
    63 u_2_4_1      *              0             0             1 
    64 u_1_4_2      *              1             0             1 
    65 u_2_4_2      *              0             0             1 
    66 u_1_4_5      *              1             0             1 
    67 u_2_4_5      *              0             0             1 
    68 u_1_4_6      *              1             0             1 
    69 u_2_4_6      *              0             0             1 
    70 u_1_5_1      *              1             0             1 
    71 u_2_5_1      *              1             0             1 
    72 u_1_5_2      *              1             0             1 
    73 u_2_5_2      *              0             0             1 
    74 u_1_5_3      *              0             0             1 
    75 u_2_5_3      *              1             0             1 
    76 u_1_5_4      *              0             0             1 
    77 u_2_5_4      *              1             0             1 
    78 u_1_6_2      *              1             0             1 
    79 u_2_6_2      *              1             0             1 
    80 u_1_6_3      *              0             0             1 
    81 u_2_6_3      *              1             0             1 
    82 u_1_6_4      *              0             0             1 
    83 u_2_6_4      *              1             0             1 
    84 u_1_6_7      *              1             0             1 
    85 u_2_6_7      *              0             0             1 
    86 u_1_7_1      *              0             0             1 
    87 u_2_7_1      *              1             0             1 
    88 u_1_7_6      *              0             0             1 
    89 u_2_7_6      *              1             0             1 

Integer feasibility conditions:

KKT.PE: max.abs.err = 4.55e-13 on row 41
        max.rel.err = 1.10e-16 on row 41
        High quality

KKT.PB: max.abs.err = 1.07e-13 on row 203
        max.rel.err = 9.84e-15 on row 203
        High quality

End of output
